(set-option :produce-models true); benchmark generated from python API
(set-info :status unknown)
(declare-fun l_1_0_5 () Real)
(declare-fun l_1_0_13 () Real)
(declare-fun l_1_0_11 () Real)
(declare-fun l_1_0_12 () Real)
(declare-fun l_1_0_10 () Real)
(declare-fun _a_0_ () Real)
(declare-fun l_1_0_9 () Real)
(declare-fun l_1_0_8 () Real)
(declare-fun l_1_0_7 () Real)
(declare-fun l_1_0_6 () Real)
(declare-fun l_1_0_4 () Real)
(declare-fun l_1_0_3 () Real)
(declare-fun l_1_0_2 () Real)
(declare-fun l_1_0_1 () Real)
(declare-fun _a_1_ () Real)
(declare-fun l_1_0_14 () Real)
(declare-fun _a_2_ () Real)
(declare-fun _a_3_ () Real)
(declare-fun _a_4_ () Real)
(declare-fun _a_5_ () Real)
(declare-fun l_1_1_9 () Real)
(declare-fun l_1_1_8 () Real)
(declare-fun l_1_1_7 () Real)
(declare-fun l_1_1_4 () Real)
(declare-fun l_1_1_2 () Real)
(declare-fun l_1_1_15 () Real)
(declare-fun l_1_1_14 () Real)
(declare-fun l_1_1_13 () Real)
(declare-fun l_1_1_12 () Real)
(declare-fun l_1_1_1 () Real)
(declare-fun l_1_1_6 () Real)
(declare-fun l_1_1_5 () Real)
(declare-fun l_1_1_3 () Real)
(declare-fun l_1_1_11 () Real)
(declare-fun l_1_1_10 () Real)
(declare-fun l_1_1_20 () Real)
(declare-fun l_1_1_19 () Real)
(declare-fun l_1_1_18 () Real)
(declare-fun l_1_1_17 () Real)
(declare-fun l_1_1_16 () Real)
(declare-fun l_1_2_7 () Real)
(declare-fun l_1_2_17 () Real)
(declare-fun l_1_2_16 () Real)
(declare-fun l_1_2_5 () Real)
(declare-fun l_1_2_4 () Real)
(declare-fun l_1_2_2 () Real)
(declare-fun l_1_2_12 () Real)
(declare-fun l_1_2_10 () Real)
(declare-fun l_1_2_19 () Real)
(declare-fun l_1_2_18 () Real)
(declare-fun l_1_2_20 () Real)
(declare-fun l_1_2_9 () Real)
(declare-fun l_1_2_8 () Real)
(declare-fun l_1_2_6 () Real)
(declare-fun l_1_2_3 () Real)
(declare-fun l_1_2_15 () Real)
(declare-fun l_1_2_14 () Real)
(declare-fun l_1_2_13 () Real)
(declare-fun l_1_2_11 () Real)
(declare-fun l_1_2_1 () Real)
(assert
 (let ((?x52 (* 2.0 l_1_0_5)))
 (let ((?x1590 (- (- _a_0_ (* (* 2.0 l_1_0_10) l_1_0_12)) (* (* 2.0 l_1_0_11) l_1_0_13))))
 (= (- ?x1590 ?x52) 0.0))))
(assert
 (let ((?x1449 (* l_1_0_9 l_1_0_9)))
 (let ((?x1489 (* (/ 1.0 8.0) l_1_0_6)))
 (let ((?x1022 (* (/ 1.0 64.0) l_1_0_5)))
 (let ((?x1019 (* (/ 1.0 8.0) l_1_0_4)))
 (let ((?x1488 (- (- (- (- (- _a_1_ l_1_0_1) l_1_0_2) (* (/ 1.0 8.0) l_1_0_3)) ?x1019) ?x1022)))
 (= (- (- (- (- ?x1488 ?x1489) l_1_0_7) l_1_0_8) ?x1449) 0.0)))))))
(assert
 (let ((?x1278 (* (/ 3.0 4.0) l_1_0_5)))
 (let ((?x1275 (* l_1_0_14 l_1_0_14)))
 (let ((?x1276 (- (- (- _a_2_ (* l_1_0_12 l_1_0_12)) (* l_1_0_13 l_1_0_13)) ?x1275)))
 (= (+ (- (+ (+ ?x1276 l_1_0_3) l_1_0_4) ?x1278) l_1_0_6) 0.0)))))
(assert
 (let ((?x1278 (* (/ 3.0 4.0) l_1_0_5)))
 (let ((?x382 (+ (- (- _a_3_ (* l_1_0_10 l_1_0_10)) (* l_1_0_11 l_1_0_11)) l_1_0_3)))
 (= (+ (- (+ ?x382 l_1_0_4) ?x1278) l_1_0_6) 0.0))))
(assert
 (let ((?x1033 (* 1.0 l_1_0_6)))
 (let ((?x1135 (* (/ 1.0 4.0) l_1_0_5)))
 (let ((?x1132 (* 1.0 l_1_0_4)))
 (let ((?x1130 (* 1.0 l_1_0_3)))
 (let ((?x411 (- (- (- (- _a_4_ (* (* 2.0 l_1_0_10) l_1_0_9)) ?x1130) ?x1132) ?x1135)))
 (= (- ?x411 ?x1033) 0.0)))))))
(assert
 (let ((?x1033 (* 1.0 l_1_0_6)))
 (let ((?x1135 (* (/ 1.0 4.0) l_1_0_5)))
 (let ((?x1132 (* 1.0 l_1_0_4)))
 (let ((?x1130 (* 1.0 l_1_0_3)))
 (let ((?x1026 (- (- (- (- _a_5_ (* (* 2.0 l_1_0_12) l_1_0_9)) ?x1130) ?x1132) ?x1135)))
 (= (- ?x1026 ?x1033) 0.0)))))))
(assert
 (= (- l_1_0_5) 0.0))
(assert
 (let ((?x52 (* 2.0 l_1_0_5)))
 (= ?x52 0.0)))
(assert
 (let ((?x1517 (* (- 2.0) l_1_0_5)))
 (= ?x1517 0.0)))
(assert
 (let ((?x52 (* 2.0 l_1_0_5)))
 (= ?x52 0.0)))
(assert
 (let ((?x52 (* 2.0 l_1_0_5)))
 (= ?x52 0.0)))
(assert
 (= (- l_1_0_5) 0.0))
(assert
 (let ((?x52 (* 2.0 l_1_0_5)))
 (= ?x52 0.0)))
(assert
 (>= l_1_0_1 0.0))
(assert
 (>= l_1_0_2 0.0))
(assert
 (>= l_1_0_3 0.0))
(assert
 (>= l_1_0_4 0.0))
(assert
 (>= l_1_0_5 0.0))
(assert
 (>= l_1_0_6 0.0))
(assert
 (>= l_1_0_7 0.0))
(assert
 (>= l_1_0_8 0.0))
(assert
 (>= l_1_0_9 0.0))
(assert
 (>= l_1_0_11 0.0))
(assert
 (>= l_1_0_14 0.0))
(assert
 (let ((?x943 (* l_1_1_15 l_1_1_15)))
 (let ((?x969 (* _a_1_ l_1_1_6)))
 (let ((?x966 (+ (- (* (- _a_1_) l_1_1_10) (* _a_1_ l_1_1_11)) (* (* 1.0 _a_1_) l_1_1_3))))
 (let ((?x972 (- (- (- (+ ?x966 (* (* 1.0 _a_1_) l_1_1_5)) ?x969) l_1_1_1) l_1_1_12)))
 (let ((?x34 (+ (+ (- (- (- ?x972 l_1_1_13) l_1_1_14) ?x943) (* 1.0 l_1_1_2)) (* 1.0 l_1_1_4))))
 (let ((?x937 (+ (- (- ?x34 (* (* l_1_1_7 _a_1_) _a_1_)) (* 1.0 l_1_1_8)) (* 1.0 l_1_1_9))))
 (= (+ ?x937 4.0) 0.0))))))))
(assert
 (let ((?x32 (* l_1_1_20 l_1_1_20)))
 (let ((?x788 (* l_1_1_19 l_1_1_19)))
 (let ((?x787 (* l_1_1_18 l_1_1_18)))
 (let ((?x835 (* _a_2_ l_1_1_6)))
 (let ((?x832 (+ (- (* (- _a_2_) l_1_1_10) (* _a_2_ l_1_1_11)) (* (* 1.0 _a_2_) l_1_1_3))))
 (let ((?x793 (- (- (- (+ ?x832 (* (* 1.0 _a_2_) l_1_1_5)) ?x835) ?x787) ?x788)))
 (let ((?x797 (- (- ?x793 ?x32) (* l_1_1_7 (+ (* (* 2.0 _a_1_) _a_2_) (* _a_5_ _a_5_))))))
 (= (- ?x797 1.0) 0.0)))))))))
(assert
 (let ((?x490 (+ (* (* 2.0 _a_0_) _a_1_) (* (* 2.0 _a_4_) _a_5_))))
 (let ((?x480 (* _a_0_ l_1_1_6)))
 (let ((?x412 (+ (- (* (- _a_0_) l_1_1_10) (* _a_0_ l_1_1_11)) (* (* 1.0 _a_0_) l_1_1_3))))
 (let ((?x483 (- (- (+ ?x412 (* (* 1.0 _a_0_) l_1_1_5)) ?x480) (* (* 2.0 l_1_1_16) l_1_1_18))))
 (= (- (- ?x483 (* (* 2.0 l_1_1_17) l_1_1_19)) (* l_1_1_7 ?x490)) 0.0))))))
(assert
 (let ((?x343 (* l_1_1_17 l_1_1_17)))
 (let ((?x341 (* l_1_1_16 l_1_1_16)))
 (let ((?x361 (* _a_3_ l_1_1_6)))
 (let ((?x63 (+ (- (* (- _a_3_) l_1_1_10) (* _a_3_ l_1_1_11)) (* (* 1.0 _a_3_) l_1_1_3))))
 (let ((?x344 (- (- (- (+ ?x63 (* (* 1.0 _a_3_) l_1_1_5)) ?x361) ?x341) ?x343)))
 (let ((?x336 (- ?x344 (* l_1_1_7 (+ (* (* 2.0 _a_1_) _a_3_) (* _a_4_ _a_4_))))))
 (= ?x336 0.0))))))))
(assert
 (let ((?x213 (* _a_4_ l_1_1_6)))
 (let ((?x138 (* _a_4_ l_1_1_11)))
 (let ((?x145 (* _a_4_ l_1_1_10)))
 (let ((?x210 (+ (- (- (* (* (* (- 2.0) _a_1_) _a_4_) l_1_1_7) ?x145) ?x138) (* (* 1.0 _a_4_) l_1_1_3))))
 (let ((?x217 (- (- (+ ?x210 (* (* 1.0 _a_4_) l_1_1_5)) ?x213) (* (* 2.0 l_1_1_15) l_1_1_16))))
 (= ?x217 0.0)))))))
(assert
 (let ((?x77 (* _a_5_ l_1_1_6)))
 (let ((?x69 (* _a_5_ l_1_1_11)))
 (let ((?x67 (* _a_5_ l_1_1_10)))
 (let ((?x74 (+ (- (- (* (* (* (- 2.0) _a_1_) _a_5_) l_1_1_7) ?x67) ?x69) (* (* 1.0 _a_5_) l_1_1_3))))
 (let ((?x978 (- (- (+ ?x74 (* (* 1.0 _a_5_) l_1_1_5)) ?x77) (* (* 2.0 l_1_1_15) l_1_1_18))))
 (= ?x978 0.0)))))))
(assert
 (let ((?x321 (* _a_0_ _a_0_)))
 (let ((?x774 (+ ?x321 (* (* 2.0 _a_2_) _a_3_))))
 (let ((?x295 (- l_1_1_7)))
 (= (* ?x295 ?x774) 0.0)))))
(assert
 (= (* (* (* (- 2.0) _a_0_) _a_2_) l_1_1_7) 0.0))
(assert
 (= (* (* (* (- 2.0) _a_0_) _a_3_) l_1_1_7) 0.0))
(assert
 (let ((?x1183 (+ (* (* 2.0 _a_0_) _a_4_) (* (* 2.0 _a_3_) _a_5_))))
 (let ((?x295 (- l_1_1_7)))
 (= (* ?x295 ?x1183) 0.0))))
(assert
 (let ((?x1094 (+ (* (* 2.0 _a_0_) _a_5_) (* (* 2.0 _a_2_) _a_4_))))
 (let ((?x295 (- l_1_1_7)))
 (= (* ?x295 ?x1094) 0.0))))
(assert
 (= (* (* (- l_1_1_7) _a_2_) _a_2_) 0.0))
(assert
 (= (* (* (* (- 2.0) _a_2_) _a_5_) l_1_1_7) 0.0))
(assert
 (= (* (* (- l_1_1_7) _a_3_) _a_3_) 0.0))
(assert
 (= (* (* (* (- 2.0) _a_3_) _a_4_) l_1_1_7) 0.0))
(assert
 (>= l_1_1_1 0.0))
(assert
 (>= l_1_1_2 0.0))
(assert
 (>= l_1_1_3 0.0))
(assert
 (>= l_1_1_4 0.0))
(assert
 (>= l_1_1_5 0.0))
(assert
 (>= l_1_1_6 0.0))
(assert
 (>= l_1_1_7 0.0))
(assert
 (>= l_1_1_8 0.0))
(assert
 (>= l_1_1_9 0.0))
(assert
 (>= l_1_1_10 0.0))
(assert
 (>= l_1_1_11 0.0))
(assert
 (>= l_1_1_12 0.0))
(assert
 (>= l_1_1_13 0.0))
(assert
 (>= l_1_1_14 0.0))
(assert
 (>= l_1_1_15 0.0))
(assert
 (>= l_1_1_17 0.0))
(assert
 (>= l_1_1_20 0.0))
(assert
 (let ((?x498 (* l_1_2_17 l_1_2_17)))
 (let ((?x698 (* l_1_2_16 l_1_2_16)))
 (let ((?x494 (* (/ 790123456790123.0 1000000000000000.0) _a_3_)))
 (let ((?x1187 (* _a_3_ l_1_2_2)))
 (let ((?x1200 (* _a_3_ l_1_2_12)))
 (let ((?x1186 (- (- (+ (* (/ 888888888888889.0 10000000000000000.0) _a_0_) (* (/ 1.0 100.0) _a_2_)) (* _a_3_ l_1_2_10)) ?x1200)))
 (let ((?x1201 (- (- (- ?x1186 ?x1187) (* (* 1.0 _a_3_) l_1_2_4)) (* (* 1.0 _a_3_) l_1_2_5))))
 (let ((?x705 (- (- (- (+ ?x1201 ?x494) ?x698) ?x498) (* l_1_2_7 (+ (* (* 2.0 _a_1_) _a_3_) (* _a_4_ _a_4_))))))
 (= ?x705 0.0))))))))))
(assert
 (let ((?x490 (+ (* (* 2.0 _a_0_) _a_1_) (* (* 2.0 _a_4_) _a_5_))))
 (let ((?x496 (* (/ 493827160493827.0 5000000000000000.0) _a_3_)))
 (let ((?x114 (* (/ 9.0 50.0) _a_2_)))
 (let ((?x717 (* (/ 198611111111111.0 250000000000000.0) _a_0_)))
 (let ((?x718 (* _a_0_ l_1_2_2)))
 (let ((?x721 (- (- (- (* (- _a_0_) l_1_2_10) (* _a_0_ l_1_2_12)) ?x718) (* (* 1.0 _a_0_) l_1_2_4))))
 (let ((?x520 (- (+ (+ (- ?x721 (* (* 1.0 _a_0_) l_1_2_5)) ?x717) ?x114) ?x496)))
 (let ((?x535 (- (- ?x520 (* (* 2.0 l_1_2_16) l_1_2_18)) (* (* 2.0 l_1_2_17) l_1_2_19))))
 (= (- ?x535 (* l_1_2_7 ?x490)) 0.0))))))))))
(assert
 (let ((?x232 (* l_1_2_20 l_1_2_20)))
 (let ((?x231 (* l_1_2_19 l_1_2_19)))
 (let ((?x233 (* l_1_2_18 l_1_2_18)))
 (let ((?x1569 (* (/ 154320987654321.0 50000000000000000.0) _a_3_)))
 (let ((?x1563 (* (/ 81.0 100.0) _a_2_)))
 (let ((?x639 (* _a_2_ l_1_2_2)))
 (let ((?x638 (* _a_2_ l_1_2_12)))
 (let ((?x642 (- (- (- (- (* (- (/ 1.0 20.0)) _a_0_) (* _a_2_ l_1_2_10)) ?x638) ?x639) (* (* 1.0 _a_2_) l_1_2_4))))
 (let ((?x225 (- (+ (+ (- ?x642 (* (* 1.0 _a_2_) l_1_2_5)) ?x1563) ?x1569) ?x233)))
 (let ((?x1004 (- (- (- ?x225 ?x231) ?x232) (* l_1_2_7 (+ (* (* 2.0 _a_1_) _a_2_) (* _a_5_ _a_5_))))))
 (= ?x1004 0.0))))))))))))
(assert
 (let ((?x1162 (* l_1_2_15 l_1_2_15)))
 (let ((?x581 (* _a_1_ l_1_2_2)))
 (let ((?x1087 (- (- (- (* (- _a_1_) l_1_2_10) (* _a_1_ l_1_2_12)) ?x581) (* (* 1.0 _a_1_) l_1_2_4))))
 (let ((?x1011 (- (- (+ (- ?x1087 (* (* 1.0 _a_1_) l_1_2_5)) _a_1_) l_1_2_1) (* 1.0 l_1_2_11))))
 (let ((?x1103 (- (- (- (- (- ?x1011 l_1_2_13) l_1_2_14) ?x1162) l_1_2_3) (* 1.0 l_1_2_6))))
 (let ((?x1157 (- (- (- ?x1103 (* (* l_1_2_7 _a_1_) _a_1_)) (* 1.0 l_1_2_8)) (* 1.0 l_1_2_9))))
 (= ?x1157 0.0))))))))
(assert
 (let ((?x1353 (* (/ 1.0 10.0) _a_5_)))
 (let ((?x1549 (* (/ 888888888888889.0 1000000000000000.0) _a_4_)))
 (let ((?x261 (* _a_4_ l_1_2_2)))
 (let ((?x258 (* _a_4_ l_1_2_12)))
 (let ((?x263 (* _a_4_ l_1_2_10)))
 (let ((?x262 (- (- (- (* (* (* (- 2.0) _a_1_) _a_4_) l_1_2_7) ?x263) ?x258) ?x261)))
 (let ((?x1547 (- (- ?x262 (* (* 1.0 _a_4_) l_1_2_4)) (* (* 1.0 _a_4_) l_1_2_5))))
 (= (- (+ (+ ?x1547 ?x1549) ?x1353) (* (* 2.0 l_1_2_15) l_1_2_16)) 0.0)))))))))
(assert
 (let ((?x1358 (* (/ 9.0 10.0) _a_5_)))
 (let ((?x1403 (* _a_5_ l_1_2_2)))
 (let ((?x1412 (* _a_5_ l_1_2_12)))
 (let ((?x1300 (* _a_5_ l_1_2_10)))
 (let ((?x1402 (- (- (* (* (* (- 2.0) _a_1_) _a_5_) l_1_2_7) (* (/ 138888888888889.0 2500000000000000.0) _a_4_)) ?x1300)))
 (let ((?x257 (- (- (- (- ?x1402 ?x1412) ?x1403) (* (* 1.0 _a_5_) l_1_2_4)) (* (* 1.0 _a_5_) l_1_2_5))))
 (= (- (+ ?x257 ?x1358) (* (* 2.0 l_1_2_15) l_1_2_18)) 0.0))))))))
(assert
 (let ((?x321 (* _a_0_ _a_0_)))
 (let ((?x774 (+ ?x321 (* (* 2.0 _a_2_) _a_3_))))
 (let ((?x1465 (- l_1_2_7)))
 (= (* ?x1465 ?x774) 0.0)))))
(assert
 (= (* (* (* (- 2.0) _a_0_) _a_2_) l_1_2_7) 0.0))
(assert
 (= (* (* (* (- 2.0) _a_0_) _a_3_) l_1_2_7) 0.0))
(assert
 (let ((?x1183 (+ (* (* 2.0 _a_0_) _a_4_) (* (* 2.0 _a_3_) _a_5_))))
 (let ((?x1465 (- l_1_2_7)))
 (= (* ?x1465 ?x1183) 0.0))))
(assert
 (let ((?x1094 (+ (* (* 2.0 _a_0_) _a_5_) (* (* 2.0 _a_2_) _a_4_))))
 (let ((?x1465 (- l_1_2_7)))
 (= (* ?x1465 ?x1094) 0.0))))
(assert
 (= (* (* (- l_1_2_7) _a_2_) _a_2_) 0.0))
(assert
 (= (* (* (* (- 2.0) _a_2_) _a_5_) l_1_2_7) 0.0))
(assert
 (= (* (* (- l_1_2_7) _a_3_) _a_3_) 0.0))
(assert
 (= (* (* (* (- 2.0) _a_3_) _a_4_) l_1_2_7) 0.0))
(assert
 (>= l_1_2_1 0.0))
(assert
 (>= l_1_2_2 0.0))
(assert
 (>= l_1_2_3 0.0))
(assert
 (>= l_1_2_4 0.0))
(assert
 (>= l_1_2_5 0.0))
(assert
 (>= l_1_2_6 0.0))
(assert
 (>= l_1_2_7 0.0))
(assert
 (>= l_1_2_8 0.0))
(assert
 (>= l_1_2_9 0.0))
(assert
 (>= l_1_2_10 0.0))
(assert
 (>= l_1_2_11 0.0))
(assert
 (>= l_1_2_12 0.0))
(assert
 (>= l_1_2_13 0.0))
(assert
 (>= l_1_2_14 0.0))
(assert
 (>= l_1_2_15 0.0))
(assert
 (>= l_1_2_17 0.0))
(assert
 (>= l_1_2_20 0.0))
(check-sat)
(get-model)